submitit INFO (2023-04-30 13:43:43,570) - Starting with JobEnvironment(job_id=27528, hostname=cpunode24, local_rank=2(5), node=0(1), global_rank=2(5))
submitit INFO (2023-04-30 13:43:43,570) - Loading pickle: /h/30/pashootan/Matrix-Mult-CP/src/../logs/2x2x2_5_Apr30_13:43:41/27528_submitted.pkl
 ! --------------------------------------------------- CP Optimizer 22.1.1.0 --
 ! Satisfiability problem - 60 variables, 64 constraints
 ! TimeLimit            = 7200
 ! Workers              = 8
 ! LogPeriod            = 10000000
 ! RandomSeed           = 8092
 ! Initial process time : 0.01s (0.01s extraction + 0.00s propagation)
 !  . Log search space  : 95.1 (before), 95.1 (after)
 !  . Memory usage      : 398.3 kB (before), 398.3 kB (after)
 ! Using parallel search with 8 workers.
 ! ----------------------------------------------------------------------------
 !               Branches  Non-fixed    W       Branch decision
                   10000k          6    8        -1  = V0_3
                   10000k          5    3        -1 != V1_1
                   10000k          5    5         0 != U3_0
                   10000k          7    7   F     0  = V2_1
                   10000k          4    4   F     0  = V0_0
                   10000k          4    1   F     0  = U4_1
                   10000k          4    6   F     1  = U2_2
                   10000k          5    2   F     0 != V1_3
                   20000k          7    8            -
                   20000k          6    5        -1  = U4_2
                   20000k          6    3         1 != W1_2
                   20000k          7    7   F     0 != U2_0
                   20000k          7    4         0 != W2_1
                   20000k          7    1         1 != V2_2
                   20000k          6    6         0  = V0_0
                   20000k          6    2         0  = V2_0
                   30000k          7    8         0 != V4_3
                   30000k          9    3        -1 != V0_1
                   30000k          6    5   F     1  = V4_3
                   30000k          6    7        -1  = W3_3
 ! Time = 288.44s, Average fail depth = 19, Memory usage = 142.4 MB
 !               Branches  Non-fixed    W       Branch decision
                   30000k          6    4   F     1  = V1_0
                   30000k          6    6         1 != W1_0
                   30000k          7    2   F     1  = W3_0
                   30000k          7    1         1  = U1_1
                   40000k          7    8   F    -1 != W4_1
                   40000k          9    3         0 != W3_3
                   40000k          6    5   F    -1  = V4_2
                   40000k          9    7   F    -1  = U0_2
                   40000k          7    4        -1 != U1_0
                   40000k          6    2         0  = W2_2
                   40000k          6    6   F     0 != U3_0
                   40000k          7    1   F    -1  = V3_2
                   50000k          7    8   F        -
                   50000k          9    3   F    -1 != U4_2
                   50000k          7    5   F     1 != V1_1
                   50000k          8    7         1 != U3_0
                   50000k          7    2         1  = U1_1
                   50000k          6    1        -1  = W2_1
                   50000k          6    4         0  = V2_1
                   50000k          7    6   F     1  = W3_2
 ! Time = 495.22s, Average fail depth = 19, Memory usage = 234.6 MB
 !               Branches  Non-fixed    W       Branch decision
                   60000k          7    8         1 != W3_1
                   60000k          8    3   F     0  = U0_1
                   60000k          8    7         1 != U3_3
                   60000k          6    5   F    -1  = W2_0
                   60000k          7    1         0 != V0_1
                   60000k          7    2         0 != U3_0
                   60000k          7    4   F    -1 != V4_1
                   60000k          7    6         0  = W4_1
                   70000k          5    8         0 != V4_2
                   70000k          9    3   F    -1  = V3_1
                   70000k          7    7   F    -1  = V4_2
                   70000k          7    5   F     1 != V3_1
                   70000k          7    1         0 != W2_2
                   70000k          7    4   F    -1 != V3_0
                   70000k          7    6         1 != W2_1
                   70000k          7    2         1 != W3_0
                   80000k          6    8   F    -1 != W4_1
                   80000k          6    3         0  = V0_1
                   80000k          7    5         1  = W4_2
                   80000k          7    1   F     1  = U3_0
 ! Time = 790.72s, Average fail depth = 19, Memory usage = 364.7 MB
 !               Branches  Non-fixed    W       Branch decision
                   80000k          6    7        -1 != V2_0
                   80000k          7    4   F     1 != W4_1
                   80000k          7    6   F    -1  = V3_3
                   80000k          7    2   F    -1 != W0_2
                   90000k          7    8        -1 != U4_1
                   90000k          7    5   F    -1 != V0_0
                   90000k          7    3   F    -1  = V2_1
                   90000k          7    7        -1  = W2_3
                   90000k          7    1         1 != V3_1
                   90000k          7    4   F     0 != V2_0
                   90000k          6    6         0  = W1_0
                   90000k          8    2   F    -1  = W1_1
                     100M          6    8   F     1  = W3_1
                     100M          8    5   F    -1  = V4_3
                     100M          9    7        -1  = U1_0
                     100M          6    1   F    -1  = U4_1
                     100M          7    4         0 != W4_0
                     100M          7    3   F    -1  = W1_2
                     100M          7    2   F    -1  = V1_1
                     100M          7    6         0 != W2_1
 ! Time = 996.42s, Average fail depth = 19, Memory usage = 453.3 MB
 !               Branches  Non-fixed    W       Branch decision
                     110M          7    8   F     1  = V0_2
                     110M          8    5   F     1 != U4_2
                     110M          8    7         1 != U2_2
                     110M          7    4   F    -1  = U2_0
                     110M          7    1   F    -1  = V1_2
                     110M          7    6   F     0  = V4_3
                     110M          8    2   F     1  = W4_1
                     110M          6    3         1  = V3_0
                     120M          7    8        -1 != W4_1
                     120M          7    5         1 != W0_0
                     120M          6    7   F     0  = V1_1
                     120M          6    4   F     1 != W3_0
                     120M          8    1            -
                     120M          8    3   F     1  = W4_2
                     120M          8    2   F     0 != W4_2
                     120M          6    6   F     1 != V2_1
                     130M          6    8   F     0  = U0_3
                     130M          6    5   F     0 != U4_2
                     130M          8    7   F     1  = U0_3
                     130M          8    1         0  = V4_3
 ! Time = 1291.22s, Average fail depth = 19, Memory usage = 584.8 MB
 !               Branches  Non-fixed    W       Branch decision
                     130M          6    4   F    -1 != V2_1
                     130M          7    2         0 != V2_2
                     130M          6    3         1  = W3_0
                     130M          7    6   F     0 != V2_0
                     140M          7    8         0 != W1_2
                     140M          7    5         1 != V3_2
                     140M          9    7         0  = U4_3
                     140M          8    1   F     0  = W1_2
                     140M          7    4         0 != U2_2
                     140M          7    2   F     0 != U0_0
                     140M          6    3        -1 != W3_0
                     140M          6    6        -1 != V2_3
                     150M          7    8   F     1  = U1_1
                     150M          7    1   F    -1 != V1_2
                     150M          7    5         1  = U3_0
                     150M          9    7   F     0 != U0_2
                     150M          7    4   F     0  = U3_0
                     150M          7    6   F    -1  = U1_0
                     150M          7    2   F     0 != U4_0
                     150M          8    3   F     0  = W2_1
 ! Time = 1505.65s, Average fail depth = 19, Memory usage = 675.0 MB
 !               Branches  Non-fixed    W       Branch decision
                     160M          7    8         1 != V0_3
                     160M          6    5   F     0  = U1_2
                     160M          7    1         0 != W4_1
                     160M          8    7   F    -1  = U4_0
                     160M          6    4   F     0  = W2_0
                     160M          7    6        -1  = W4_2
                     160M          7    2   F     0 != W1_1
                     160M          8    3   F    -1  = W4_3
                     170M          7    8   F    -1 != W2_1
                     170M          8    5         1  = W4_0
                     170M          8    1         0 != V0_2
                     170M          7    6         0  = W4_2
                     170M          8    7   F     1  = U0_1
                     170M          7    4   F     0  = W3_1
                     170M          8    2         0 != W1_0
                     170M          9    3         0 != W0_2
                     180M          6    8        -1  = V3_0
                     180M          6    5        -1 != V2_0
                     180M          7    1   F     0  = W1_1
                     180M          7    6        -1 != V2_0
 ! Time = 1793.75s, Average fail depth = 19, Memory usage = 802.5 MB
 !               Branches  Non-fixed    W       Branch decision
                     180M          7    2         0 != V2_0
                     180M          8    7         1 != U3_2
                     180M          7    4         1 != W4_1
                     180M          7    3   F     1  = V4_2
                     190M          6    8         1  = V0_3
                     190M          7    1         1 != U0_3
                     190M          7    5         0 != V1_2
                     190M          9    7   F    -1  = U2_2
                     190M          8    2   F     1 != V2_0
                     190M          6    6        -1  = W4_0
                     190M          7    4        -1  = V4_3
                     190M          7    3         1 != U1_2
                     200M          7    8   F    -1 != U4_2
                     200M          8    1        -1 != W2_1
                     200M          8    5   F     1  = W2_2
                     200M          7    2         1  = U1_1
                     200M          8    7   F     0  = V2_2
                     200M          6    6   F    -1  = W2_0
                     200M          8    4         0 != W1_0
                     200M          8    3         0 != W1_3
 ! Time = 2011.15s, Average fail depth = 19, Memory usage = 895.1 MB
 !               Branches  Non-fixed    W       Branch decision
                     210M          7    8   F     0  = V0_3
                     210M          8    1         1  = U3_0
                     210M          7    5         0  = V3_2
                     210M          7    6   F     1 != W2_2
                     210M          8    2         1 != V3_3
                     210M          6    7   F     0  = U2_3
                     210M          7    4   F    -1 != U1_3
                     210M          7    3   F     0 != V3_2
                     220M          7    8         1 != W4_1
                     220M          8    1        -1  = W3_0
                     220M          8    2   F    -1  = V0_0
                     220M          9    7         1  = U4_0
                     220M          7    5        -1  = W0_1
                     220M          6    6   F     0  = V1_2
                     220M          8    4        -1  = V0_0
                     220M          8    3         1  = W1_2
                     230M          7    8   F     1 != V1_2
                     230M          8    1   F    -1 != W0_1
                     230M          7    5   F    -1 != U1_0
                     230M          7    2   F    -1  = W2_1
 ! Time = 2296.24s, Average fail depth = 19, Memory usage = 1.0 GB
 !               Branches  Non-fixed    W       Branch decision
                     230M          6    6   F     0  = U4_2
                     230M          7    4   F     1  = U4_2
                     230M          8    7   F    -1 != U1_0
                     230M          7    3        -1  = W4_2
                     240M          6    8        -1 != W2_3
                     240M          8    1        -1  = W3_2
                     240M          7    5   F    -1  = U4_0
                     240M          9    2         1 != W0_2
                     240M          7    6   F     0  = U4_0
                     240M          8    4   F     1  = V0_1
                     240M         10    3   F     0 != W3_2
                     240M          9    7   F    -1 != V1_1
                     250M          7    8         1 != V0_2
                     250M          7    1         0  = V1_2
                     250M          7    5   F     0  = W4_0
                     250M          9    2   F     1  = W2_2
                     250M          7    6         0 != V0_3
                     250M          8    4   F     1 != V0_0
                     250M          7    3        -1 != W2_1
                     250M          8    7        -1 != U2_2
 ! Time = 2521.63s, Average fail depth = 19, Memory usage = 1.1 GB
 !               Branches  Non-fixed    W       Branch decision
                     260M          7    8   F     1 != V2_3
                     260M          8    1         0 != W3_0
                     260M          8    5         1 != W3_2
                     260M          9    2   F     1 != U2_2
                     260M          7    6   F     0  = V3_0
                     260M          8    4   F     1  = V2_1
                     260M          8    7   F     1  = V1_2
                     260M          9    3   F     1  = W0_2
                     270M          6    8         0 != U2_0
                     270M          7    1   F     1  = U0_0
                     270M          7    5   F     0  = U3_2
                     270M          8    2   F     1 != W2_2
                     270M          6    6         1  = U2_0
                     270M          7    4   F     0  = W3_0
                     270M          9    7         1 != V4_2
                     270M         10    3   F    -1 != W0_2
                     280M          7    8   F     0 != V3_1
                     280M          8    1         1 != U1_0
                     280M          8    5   F    -1  = V0_3
                     280M          8    2         1 != V3_3
 ! Time = 2804.31s, Average fail depth = 19, Memory usage = 1.2 GB
 !               Branches  Non-fixed    W       Branch decision
                     280M          8    6         0  = V1_3
                     280M          8    4         1 != U3_1
                     280M          6    3   F     0  = U3_1
                     280M         10    7        -1 != V1_1
                     290M          6    8   F    -1 != W0_3
                     290M          8    1        -1 != W3_0
                     290M          8    5   F     1  = W3_0
                     290M          7    2         0  = V0_2
                     290M          6    6   F     0  = V4_3
                     290M          8    4         1 != V3_2
                     290M          8    3   F     1  = W2_1
                     290M          8    7   F    -1  = U0_3
                     300M          7    8   F    -1 != W4_1
                     300M          7    1   F     1  = V4_0
                     300M          8    5         0 != V4_2
                     300M          9    2   F     1 != W0_2
                     300M          7    6         0  = U2_0
                     300M          8    4         1 != V3_1
                     300M         10    3        -1 != V2_2
                     300M         11    7         0  = U0_2
 ! Time = 3047.45s, Average fail depth = 19, Memory usage = 1.3 GB
 !               Branches  Non-fixed    W       Branch decision
                     310M          6    8   F     0 != V2_0
                     310M          8    1   F     1 != V2_2
                     310M          8    5         1 != W0_2
                     310M          8    2   F     0 != U2_1
                     310M          7    6         1 != U4_0
                     310M          8    4         0  = W3_1
                     310M          7    7   F    -1  = U4_3
                     310M          8    3   F    -1 != U0_1
                     320M          7    8         0 != V4_1
                     320M          7    1   F     1 != W2_1
                     320M          8    5        -1 != V0_3
                     320M          8    6   F    -1 != W0_2
                     320M          7    2   F     0 != V1_1
                     320M          7    4   F     0 != U2_3
                     320M         11    7   F     1 != W1_1
                     320M         11    3         0  = W2_1
                     330M          6    8   F     1  = U0_3
                     330M          8    5   F    -1  = U3_0
                     330M          6    6         0 != V4_0
                     330M          8    1         1 != U3_3
 ! Time = 3308.19s, Average fail depth = 19, Memory usage = 1.4 GB
 !               Branches  Non-fixed    W       Branch decision
                     330M          8    2   F    -1  = U3_2
                     330M          8    4   F    -1 != V3_3
                     330M          7    7        -1 != V0_2
                     330M          7    3   F    -1  = W0_1
                     340M          7    8         0 != V3_0
                     340M          6    6   F     0 != V2_0
                     340M          7    2        -1  = W0_1
                     340M          8    1   F     0  = V4_2
                     340M          7    5         1 != U1_2
                     340M          9    7         1 != U0_3
                     340M          9    4   F     1 != V0_2
                     340M          9    3   F    -1 != V0_2
                     350M          7    8   F     0  = W3_1
                     350M          8    1   F     1 != V2_1
                     350M          7    2         0  = U2_2
                     350M          8    5         0 != W0_1
                     350M          9    6   F    -1 != V0_2
                     350M          8    4   F    -1  = V2_1
                     350M          9    3   F     1 != W3_1
                     350M         10    7   F     0  = U2_3
 ! Time = 3558.19s, Average fail depth = 19, Memory usage = 1.6 GB
 !               Branches  Non-fixed    W       Branch decision
                     360M          6    8   F    -1  = U4_1
                     360M          6    1   F     1 != U3_0
                     360M          7    6         0 != U2_1
                     360M          8    2   F     0  = U0_1
                     360M          9    5         0 != W0_3
                     360M          8    4   F    -1  = V0_1
                     360M          7    3         0 != W0_2
                     360M          7    7   F    -1 != W2_1
                     370M          7    8   F     0  = U0_1
                     370M          8    1   F     1  = W3_0
                     370M          8    6         0  = W2_0
                     370M          6    2        -1 != V1_0
                     370M          8    5   F    -1 != W2_0
                     370M          8    3   F    -1  = W0_1
                     370M          8    4   F     1 != U2_0
                     370M          7    7   F    -1  = U1_3
                     380M          6    8        -1  = W4_1
                     380M          8    1         0  = W4_1
                     380M          9    6         0 != U2_0
                     380M          8    2        -1 != V2_2
 ! Time = 3811.36s, Average fail depth = 19, Memory usage = 1.7 GB
 !               Branches  Non-fixed    W       Branch decision
                     380M          7    5        -1  = V0_0
                     380M          7    3   F    -1  = W3_1
                     380M          7    4   F    -1 != U2_0
                     380M          7    7        -1 != V2_0
                     390M          7    8   F    -1  = U1_1
                     390M          8    1   F     1  = U2_0
                     390M          7    6        -1 != U1_1
                     390M          8    2         0 != U2_0
                     390M          8    5   F    -1 != W4_2
                     390M         10    3   F     1 != W3_2
                     390M          9    4         0 != V4_0
                     390M         10    7         1 != U3_3
                     400M          7    8        -1 != U2_3
                     400M          8    1   F    -1 != U1_0
                     400M          8    6         0  = U1_2
                     400M          8    2         0  = V3_0
                     400M          7    5   F    -1  = V2_3
                     400M         10    3         1 != U4_1
                     400M          8    4        -1 != V0_2
                     400M          9    7        -1 != U3_0
 ! Time = 4078.44s, Average fail depth = 19, Memory usage = 1.8 GB
 !               Branches  Non-fixed    W       Branch decision
                     410M          7    8            -
                     410M          7    6   F     1  = V3_0
                     410M         11    1         1  = W3_2
                     410M          8    2        -1 != W4_0
                     410M          7    5   F     1 != U1_2
                     410M          8    4         1 != W2_0
                     410M          7    3        -1 != W1_1
                     410M          7    7        -1  = U3_0
                     420M          7    8   F     0  = V0_0
                     420M          8    6   F     1  = W0_1
                     420M          8    1   F    -1  = V4_0
                     420M          9    2         0 != U2_2
                     420M          8    5         1  = U1_0
                     420M          8    4         0 != U4_2
                     420M          9    3   F    -1 != U1_0
                     420M          8    7   F    -1  = V0_0
                     430M          7    8            -
                     430M          8    6        -1 != V0_0
                     430M          7    1         0 != W4_2
                     430M          7    2        -1 != W1_1
 ! Time = 4314.70s, Average fail depth = 19, Memory usage = 1.9 GB
 !               Branches  Non-fixed    W       Branch decision
                     430M          8    5   F     0  = U1_1
                     430M          7    3   F     1  = V4_0
                     430M          9    4   F     1  = V0_0
                     430M          7    7   F     0 != U4_3
                     440M          6    8   F     1  = W1_0
                     440M          7    6   F     1  = U2_2
                     440M          9    2   F     0  = W3_1
                     440M          8    1   F    -1  = U2_0
                     440M          6    5         1 != U0_0
                     440M          8    3   F    -1 != V4_3
                     440M          8    4         1  = W2_1
                     440M          6    7   F    -1  = W0_0
                     450M          7    8        -1  = W2_1
                     450M          6    6   F     1  = W1_0
                     450M          8    1   F    -1  = W3_2
                     450M          8    2         0  = V1_2
                     450M          8    5         1  = U0_0
                     450M          9    3   F     1 != V4_0
                     450M          8    4   F    -1  = U1_0
                     450M          8    7   F     0 != U1_3
 ! Time = 4596.00s, Average fail depth = 19, Memory usage = 2.0 GB
 !               Branches  Non-fixed    W       Branch decision
                     460M          7    8         0  = V3_2
                     460M          7    6         0  = U2_2
                     460M          7    1        -1  = V3_1
                     460M         10    2   F     1  = V4_0
                     460M          7    5         0 != U4_1
                     460M          9    7        -1  = U3_0
                     460M         10    3        -1  = U0_2
                     460M          8    4         0 != V0_2
                     470M          7    8   F    -1  = U3_2
                     470M          8    6   F    -1 != V0_1
                     470M          7    1   F     1  = U4_1
                     470M          8    2        -1 != V0_2
                     470M          8    5         0  = V0_2
                     470M         10    7         1  = U4_0
                     470M          7    4         1  = W1_1
                     470M          9    3         0  = V4_2
                     480M          4    8            -
                     480M          7    6        -1  = W3_0
                     480M          9    1   F     0  = U4_0
                     480M          9    2        -1  = U2_1
 ! Time = 4837.60s, Average fail depth = 19, Memory usage = 2.1 GB
 !               Branches  Non-fixed    W       Branch decision
                     480M          6    5   F     0  = W2_1
                     480M          7    7   F    -1  = V4_2
                     480M          8    4   F     1 != U1_0
                     480M          7    3        -1  = V1_2
                     490M          7    8         1 != V2_1
                     490M          8    6         0 != V1_0
                     490M          8    1        -1 != U3_0
                     490M          8    2        -1  = W4_0
                     490M          8    5   F    -1 != V3_3
                     490M          8    7   F    -1  = V2_1
                     490M          8    4   F    -1 != W1_0
                     490M          8    3        -1 != U1_1
                     500M          9    6   F    -1 != V1_1
                     500M          7    8   F    -1 != U4_2
                     500M          8    1         1 != U0_1
                     500M          8    2         1  = V0_2
                     500M          8    5         1 != V4_0
                     500M          7    7         1  = U3_3
                     500M          8    4         0 != W2_2
                     500M          9    3   F    -1 != U4_0
 ! Time = 5113.75s, Average fail depth = 19, Memory usage = 2.2 GB
 !               Branches  Non-fixed    W       Branch decision
                     510M          6    8   F    -1 != U0_3
                     510M          7    6        -1  = U1_0
                     510M          9    2        -1  = W0_1
                     510M          7    1         1  = V3_2
                     510M          7    5         0 != W1_1
                     510M          8    7   F    -1  = V1_3
                     510M          7    4         1  = U3_1
                     510M          9    3   F     1  = U2_1
                     520M          7    8        -1  = W2_1
                     520M          8    6         1  = U4_1
                     520M          8    1         1  = V3_1
                     520M          9    2   F     1  = W3_2
                     520M          7    5   F     1  = U4_0
                     520M          9    7   F     1  = V4_3
                     520M          9    4   F     0  = V1_0
                     520M         10    3         1 != W4_1
                     530M          8    6   F    -1  = U0_1
                     530M          6    8        -1  = U2_2
                     530M          8    1   F     0  = U1_1
                     530M          8    5         1 != U3_1
 ! Time = 5349.61s, Average fail depth = 19, Memory usage = 2.3 GB
 !               Branches  Non-fixed    W       Branch decision
                     530M          8    2   F    -1 != U0_3
                     530M         10    7         1 != U2_2
                     530M         11    3   F     0  = U3_0
                     540M          7    8   F        -
                     540M          7    6   F     0  = U4_1
                     530M          7    4   F    -1 != U4_2
                     540M          6    5   F    -1  = V4_3
                     540M          8    2         0 != V0_0
                     540M          8    1         0 != V3_2
                     540M          8    7         1 != V4_2
                     550M          6    8   F        -
                     550M          7    6        -1  = U4_2
                     540M          8    3         0  = V4_2
                     540M          9    4        -1  = W1_0
                     550M          8    5   F    -1 != V4_0
                     550M          9    2   F     1 != U2_0
                     550M          7    1   F     0 != W2_0
                     550M         10    7         0 != W2_3
                     560M          7    8            -
                     560M          7    6   F     1  = V2_3
 ! Time = 5628.95s, Average fail depth = 19, Memory usage = 2.4 GB
 !               Branches  Non-fixed    W       Branch decision
                     550M          8    4   F     0 != U3_1
                     550M          7    3   F     0  = V4_0
                     560M          8    5   F    -1  = U4_0
                     560M          8    2   F     1 != W4_0
                     560M          7    1         1 != W2_0
                     560M         10    7   F    -1  = W4_2
                     570M          7    8            -
                     560M          7    4   F     1  = U4_0
                     570M          7    6         0 != V3_0
                     560M          9    3   F     1 != U4_2
                     570M          9    5         1  = W4_1
                     570M          8    2        -1 != V1_3
                     570M          7    1   F    -1  = W2_1
                     570M          8    7        -1 != U4_3
                     570M          8    4        -1 != V2_2
                     580M          7    8   F        -
                     580M          9    6        -1  = W1_0
                     570M          8    3        -1  = U4_2
                     580M          8    5         0 != V4_1
                     580M          9    2        -1 != U0_2
 ! Time = 5855.56s, Average fail depth = 19, Memory usage = 2.5 GB
 !               Branches  Non-fixed    W       Branch decision
                     580M          8    1   F     1 != U1_2
                     580M          8    7        -1  = U1_2
                     580M          8    4   F     0  = U0_1
                     590M          7    8   F     0  = W2_1
                     590M          8    6   F     1 != V4_0
                     580M          7    3   F    -1 != W0_0
                     590M          7    2         0  = V0_2
                     590M          8    5         1  = U2_2
                     590M          8    1        -1  = W1_0
                     590M          8    7   F     1  = U1_2
                     590M          6    4         1 != V0_2
                     600M          7    8   F     1  = V4_0
                     600M          8    6   F     0  = U0_0
                     590M          8    3   F    -1 != U2_2
                     600M          9    2         1  = W4_2
                     600M          7    5   F    -1 != U2_0
                     600M          8    1   F     0  = V3_2
                     600M         11    7   F     1 != V3_0
                     610M          7    8   F     0 != V3_0
                     600M          7    4         1  = U4_3
 ! Time = 6152.49s, Average fail depth = 19, Memory usage = 2.6 GB
 !               Branches  Non-fixed    W       Branch decision
                     600M          8    3         1  = U4_2
                     610M          7    6        -1 != U3_3
                     610M          7    2         0 != U4_0
                     610M          8    5        -1  = U0_1
                     610M          9    1         0  = V3_0
                     610M         10    7         0  = W2_2
                     620M          7    8   F     1 != V2_2
                     610M          8    3   F     0  = V2_1
                     610M          8    4   F    -1 != V4_1
                     620M          7    6   F     0  = V4_2
                     620M          8    5   F    -1 != U0_0
                     620M          8    2   F    -1  = V1_3
                     620M          8    1   F    -1 != U3_1
                     620M          7    7   F    -1  = W2_1
                     630M          6    8            -
                     620M          8    3         0 != U4_2
                     630M          7    6         1  = U1_3
                     620M         11    4        -1 != V4_1
                     630M          8    2         1  = W2_2
                     630M          9    5   F    -1  = U2_0
 ! Time = 6383.99s, Average fail depth = 19, Memory usage = 2.7 GB
 !               Branches  Non-fixed    W       Branch decision
                     630M          6    1        -1 != W2_0
                     630M          7    7   F     0  = U3_2
                     640M          7    8   F     0 != U3_0
                     630M          7    3   F    -1 != U2_1
                     640M          7    6         1 != V4_3
                     630M          7    4   F    -1  = V3_2
                     640M          8    5        -1 != V0_2
                     640M          9    2   F     1 != U2_0
                     640M          9    1   F    -1 != V0_0
                     640M         10    7   F     0  = V2_1
                     650M          7    8        -1  = W3_2
                     640M          8    3   F     0  = V1_0
                     650M          7    6         0 != W4_2
                     640M          7    4        -1 != W3_2
                     650M          6    5   F     0  = U2_1
                     650M          9    2   F     1  = U4_1
                     650M          8    1         1  = U0_0
                     650M          7    7        -1 != U1_3
                     660M          7    8   F     1  = W1_2
                     650M         10    3         0  = V0_1
 ! Time = 6672.37s, Average fail depth = 19, Memory usage = 2.9 GB
 !               Branches  Non-fixed    W       Branch decision
                     650M          7    4   F     0  = W1_0
                     660M          7    5   F    -1  = W3_1
                     660M          7    2   F     1 != V4_0
                     660M          7    6         0 != V2_0
                     660M          8    1   F     0  = U2_0
                     660M          8    7   F    -1 != V3_2
                     670M          7    8   F    -1 != U1_0
                     660M          8    3   F    -1 != U1_0
                     670M          7    5   F    -1  = V2_2
                     660M          9    4        -1 != V2_2
                     670M          8    2         1 != V4_2
                     670M          6    6         1  = V4_1
                     670M          7    7        -1  = W3_2
                     670M          8    1   F    -1  = U3_0
                     680M          6    8            -
                     670M          8    3        -1  = U4_2
                     680M          8    5   F     1 != U1_0
                     680M          9    2        -1 != V0_0
                     670M          9    4   F    -1  = V4_2
                     680M          8    6         1  = V1_3
 ! Time = 6889.45s, Average fail depth = 18, Memory usage = 3.0 GB
 !               Branches  Non-fixed    W       Branch decision
                     680M          8    7   F    -1  = U2_3
                     680M          8    1   F     1  = U0_2
                     690M          7    8         0 != V0_3
                     680M         10    3   F    -1  = V0_2
                     690M          8    2   F     1 != U2_2
                     690M          8    5         1 != V1_3
                     680M          8    4   F     0  = U0_1
                     690M          8    7   F     1 != W2_0
                     690M          9    1   F     1  = V3_3
                     690M         10    6        -1  = V0_0
                     700M          7    8         0  = U0_2
                     690M         12    3   F     1  = V1_2
                     700M          9    2   F     1 != W2_2
                     700M          8    5   F     1 != V2_1
                     690M          8    4         1 != V2_1
                     700M          8    1   F     1  = W4_0
                     700M         10    7   F     0  = W4_3
                     700M          6    6         0  = V0_2
submitit WARNING (2023-04-30 15:42:42,351) - Bypassing signal SIGCONT
submitit INFO (2023-04-30 15:42:42,365) - Job has timed out. Ran 119 minutes out of requested 121 minutes.
submitit WARNING (2023-04-30 15:42:42,365) - Caught signal SIGUSR2 on cpunode24: this job is timed-out.
submitit INFO (2023-04-30 15:42:42,365) - Not checkpointing nor requeuing since I am a slave (procid=2).
                     710M          7    8         0 != W3_3
                     700M         12    3   F     1 != V4_1
 ! Time = 7193.38s, Average fail depth = 18, Memory usage = 3.1 GB
 !               Branches  Non-fixed    W       Branch decision
 ! ----------------------------------------------------------------------------
 ! Search terminated by limit, no solution found.
 ! ----------------------------------------------------------------------------
 ! Number of branches     : 5657729506
 ! Number of fails        : 2782361679
 ! Total memory usage     : 3.2 GB (3.2 GB CP Optimizer + 0.0 GB Concert)
 ! Time spent in solve    : 7200.06s (7200.05s engine + 0.01s extraction)
 ! Search speed (br. / s) : 785791.4
 ! ----------------------------------------------------------------------------
Unknown
Saving stats to: /h/30/pashootan/Matrix-Mult-CP/logs/2x2x2_5_Apr30_13:43:41/27528_2_stats.csv
submitit INFO (2023-04-30 15:43:44,350) - Job completed successfully
